unsat
(:max-memory         18.24
 :memory             18.14
 :nlsat-conflicts    3
 :nlsat-propagations 14
 :nlsat-stages       4
 :num-allocs         50163
 :rlimit-count       25645
 :time               0.01
 :total-time         0.02)
